out/bwp_4_10_1_lp.out
8
0 4    0 4
0 0    1 1
0 2    1 3
2 2    3 3
1 4    2 5
0 6    1 7
2 0    2 1
3 0    3 1
2 6    2 7
3 6    3 7
